cases/matpower/frankenstein_00.m
ipopt
[warn | PowerModels]: angmin and angmax values are 0, widening these values on branch 1 to +/- 60.0 deg.
[warn | PowerModels]: angmin and angmax values are 0, widening these values on branch 2 to +/- 60.0 deg.
[warn | PowerModels]: angmin and angmax values are 0, widening these values on branch 3 to +/- 60.0 deg.
[warn | PowerModels]: no active generators found at bus 1008, updating to bus type from 2 to 1
[warn | PowerModels]: the voltage setpoint on generator 1 does not match the value at bus 1002
[warn | PowerModels]: the voltage setpoint on generator 2 does not match the value at bus 1005
[info | PowerModels]: removing 2 cost terms from generator 1: [100.0, 0.0]
[info | PowerModels]: removing 2 cost terms from generator 2: [100.0, 0.0]
[info | PowerModels]: removing 2 cost terms from generator 3: [100.0, 0.0]

******************************************************************************
This program contains Ipopt, a library for large-scale nonlinear optimization.
 Ipopt is released as open source code under the Eclipse Public License (EPL).
         For more information visit http://projects.coin-or.org/Ipopt
******************************************************************************

This is Ipopt version 3.13.2, running with linear solver mumps.
NOTE: Other linear solvers might be more efficient (see Ipopt documentation).

Number of nonzeros in equality constraint Jacobian...:       79
Number of nonzeros in inequality constraint Jacobian.:       24
Number of nonzeros in Lagrangian Hessian.............:      133

Total number of variables............................:       25
                     variables with only lower bounds:        0
                variables with lower and upper bounds:       21
                     variables with only upper bounds:        0
Total number of equality constraints.................:       21
Total number of inequality constraints...............:       12
        inequality constraints with only lower bounds:        3
   inequality constraints with lower and upper bounds:        0
        inequality constraints with only upper bounds:        9

iter    objective    inf_pr   inf_du lg(mu)  ||d||  lg(rg) alpha_du alpha_pr  ls
   0  1.6114999e+01 1.03e+00 3.91e-03  -1.0 0.00e+00    -  0.00e+00 0.00e+00   0
   1  2.9394850e+01 1.49e-02 6.54e-01  -1.0 9.21e-01    -  7.45e-01 1.00e+00h  1
   2  2.9430313e+01 1.57e-03 3.67e-02  -1.0 6.09e-02    -  9.94e-01 1.00e+00h  1
   3  2.9429679e+01 4.20e-05 1.67e-03  -1.7 5.01e-02    -  1.00e+00 1.00e+00h  1
   4  2.9425321e+01 2.33e-04 1.37e-02  -3.8 8.47e-02    -  8.06e-01 1.00e+00h  1
   5  2.9419136e+01 6.70e-04 3.47e-03  -3.8 3.81e-02    -  9.31e-01 1.00e+00h  1
   6  2.9416635e+01 3.47e-03 1.15e-02  -3.8 1.29e-01    -  1.00e+00 1.00e+00h  1
   7  2.9416545e+01 6.52e-05 5.92e-05  -3.8 2.25e-02    -  1.00e+00 1.00e+00h  1
   8  2.9415991e+01 2.45e-04 6.90e-04  -5.7 3.70e-02    -  9.26e-01 1.00e+00h  1
   9  2.9415959e+01 2.91e-05 1.54e-04  -5.7 4.46e-03    -  1.00e+00 8.92e-01h  1
iter    objective    inf_pr   inf_du lg(mu)  ||d||  lg(rg) alpha_du alpha_pr  ls
  10  2.9415965e+01 5.50e-08 1.99e-06  -5.7 7.27e-04    -  1.00e+00 1.00e+00f  1
  11  2.9415958e+01 3.49e-08 9.20e-05  -8.6 4.23e-04    -  1.00e+00 9.39e-01h  1
  12  2.9415958e+01 1.53e-12 5.73e-11  -8.6 1.64e-05    -  1.00e+00 1.00e+00f  1

Number of Iterations....: 12

                                   (scaled)                 (unscaled)
Objective...............:   2.9415958302899071e+01    2.9415958302899071e+01
Dual infeasibility......:   5.7277436266156556e-11    5.7277436266156556e-11
Constraint violation....:   7.2206370958664189e-13    1.5271395259475185e-12
Complementarity.........:   2.5597025299001490e-09    2.5597025299001490e-09
Overall NLP error.......:   2.5597025299001490e-09    2.5597025299001490e-09


Number of objective function evaluations             = 13
Number of objective gradient evaluations             = 13
Number of equality constraint evaluations            = 13
Number of inequality constraint evaluations          = 13
Number of equality constraint Jacobian evaluations   = 13
Number of inequality constraint Jacobian evaluations = 13
Number of Lagrangian Hessian evaluations             = 12
Total CPU secs in IPOPT (w/o function evaluations)   =      1.213
Total CPU secs in NLP function evaluations           =      2.270

EXIT: Optimal Solution Found.
Time to Solution........:4.19917106628418
